14,1	0,0	6,5	20,0	0,0	0,0	0,0	0,0	0,0	6,2
18,7	8,1	0,0	10,1	13,1	0,0	0,0	10,0	0,0	0,0
0,0	0,0	8,2	0,0	9,3	17,3	0,0	0,0	14,1	0,0
10,9	0,0	13,2	0,0	0,0	0,0	7,2	0,0	0,0	0,0
0,0	17,3	0,0	10,6	16,4	0,0	0,0	6,1	0,0	0,0
0,0	6,2	11,6	0,0	6,4	15,5	0,0	0,0	13,0	0,0
0,0	7,7	0,0	12,6	0,0	0,0	19,3	0,0	0,0	19,3
8,0	0,0	15,5	0,0	0,0	0,0	0,0	0,0	0,0	14,4
0,0	15,1	0,0	8,0	5,1	0,0	0,0	6,4	0,0	0,0
0,0	0,0	17,4	0,0	0,0	6,2	14,3	0,0	0,0	15,8
									
3,2	4,7	2,8	2,9	4,9	4,5	4,2	4,6	3,3	3,9
